45491.4
0 104 105 102 103 100 97 101 98 99 96 93 92 90 95 94 91 88 85 89 86 87 84 81 80 78 83 82 79 76 73 77 74 72 75 69 68 66 71 70 67 62 60 63 61 64 65 57 56 54 59 58 55 9 12 10 13 11 14 15 18 17 16 19 8 20 7 22 23 24 21 26 29 28 27 25 6 30 5 32 33 31 34 35 4 37 38 36 39 41 44 40 3 42 43 45 2 47 48 46 49 51 53 50 52 1 106 
